; PUSH cw_1 SWAP1 DUP4 SWAP1 DUP4 SWAP1 => DUP3 DUP3 PUSH cw_1 SWAP3
(set-option :produce-proofs true)
; 
(set-info :status unknown)
(declare-fun storage_t ((_ BitVec 256) (_ BitVec 256) (_ BitVec 256) (_ BitVec 256) Int (_ BitVec 256)) (_ BitVec 256))
(declare-fun w_1 () (_ BitVec 256))
(declare-fun storage_s ((_ BitVec 256) (_ BitVec 256) (_ BitVec 256) (_ BitVec 256) Int (_ BitVec 256)) (_ BitVec 256))
(declare-fun exc_halt_t (Int) Bool)
(declare-fun exc_halt_s (Int) Bool)
(declare-fun sc_t (Int) (_ BitVec 6))
(declare-fun stack_t ((_ BitVec 256) (_ BitVec 256) (_ BitVec 256) (_ BitVec 256) Int (_ BitVec 6)) (_ BitVec 256))
(declare-fun stack_s ((_ BitVec 256) (_ BitVec 256) (_ BitVec 256) (_ BitVec 256) Int (_ BitVec 6)) (_ BitVec 256))
(declare-fun sc_s (Int) (_ BitVec 6))
(declare-fun used_gas_t ((_ BitVec 256) (_ BitVec 256) (_ BitVec 256) (_ BitVec 256) Int) Int)
(declare-fun used_gas_s ((_ BitVec 256) (_ BitVec 256) (_ BitVec 256) (_ BitVec 256) Int) Int)
(assert
 (exists ((x_0 (_ BitVec 256)) (x_1 (_ BitVec 256)) (x_2 (_ BitVec 256)) )(let (($x10242 (forall ((w (_ BitVec 256)) )(let ((?x4395 (storage_t x_0 x_1 x_2 w_1 4 w)))
 (let ((?x5458 (storage_s x_0 x_1 x_2 w_1 6 w)))
 (= ?x5458 ?x4395))))
 ))
 (let (($x7854 (exc_halt_t 4)))
 (let (($x7121 (exc_halt_s 6)))
 (let (($x10095 (= $x7121 $x7854)))
 (let (($x130 (forall ((n (_ BitVec 6)) )(let ((?x7495 (sc_t 4)))
 (let (($x9042 (bvsle ?x7495 n)))
 (let ((?x5761 (stack_t x_0 x_1 x_2 w_1 4 n)))
 (let ((?x3053 (stack_s x_0 x_1 x_2 w_1 6 n)))
 (let (($x8776 (= ?x3053 ?x5761)))
 (or $x8776 $x9042)))))))
 ))
 (let ((?x7495 (sc_t 4)))
 (let ((?x9114 (sc_s 6)))
 (let (($x2362 (= ?x9114 ?x7495)))
 (let ((?x1974 (used_gas_t x_0 x_1 x_2 w_1 0)))
 (let ((?x6459 (used_gas_s x_0 x_1 x_2 w_1 0)))
 (let (($x8294 (= ?x6459 ?x1974)))
 (let (($x5499 (forall ((w (_ BitVec 256)) )(let ((?x685 (storage_t x_0 x_1 x_2 w_1 0 w)))
 (let ((?x6823 (storage_s x_0 x_1 x_2 w_1 0 w)))
 (= ?x6823 ?x685))))
 ))
 (let (($x56 (exc_halt_t 0)))
 (let (($x57 (exc_halt_s 0)))
 (let (($x58 (= $x57 $x56)))
 (let (($x7871 (forall ((n (_ BitVec 6)) )(let ((?x3687 (stack_t x_0 x_1 x_2 w_1 0 n)))
 (let ((?x11774 (stack_s x_0 x_1 x_2 w_1 0 n)))
 (let (($x11764 (= ?x11774 ?x3687)))
 (let ((?x63 (sc_t 0)))
 (let (($x5202 (bvsle ?x63 n)))
 (or $x5202 $x11764)))))))
 ))
 (let ((?x63 (sc_t 0)))
 (let ((?x72 (sc_s 0)))
 (let (($x73 (= ?x72 ?x63)))
 (let (($x8159 (= $x7854 (or (exc_halt_t 3) (not (bvsle (_ bv0 6) (bvadd (_ bv60 6) (sc_t 3))))))))
 (let (($x5735 (forall ((w (_ BitVec 256)) )(let ((?x582 (storage_t x_0 x_1 x_2 w_1 3 w)))
 (let ((?x4395 (storage_t x_0 x_1 x_2 w_1 4 w)))
 (= ?x4395 ?x582))))
 ))
 (let (($x8582 (forall ((n (_ BitVec 6)) )(let ((?x10013 (sc_t 3)))
 (let ((?x10229 (bvadd (_ bv60 6) ?x10013)))
 (let (($x5971 (bvsle ?x10229 n)))
 (let ((?x2080 (stack_t x_0 x_1 x_2 w_1 3 n)))
 (let ((?x5761 (stack_t x_0 x_1 x_2 w_1 4 n)))
 (or (= ?x5761 ?x2080) $x5971)))))))
 ))
 (let ((?x10013 (sc_t 3)))
 (let (($x4539 (= ?x7495 ?x10013)))
 (let (($x11803 (= (used_gas_t x_0 x_1 x_2 w_1 4) (+ 3 (used_gas_t x_0 x_1 x_2 w_1 3)))))
 (let ((?x1211 (bvadd (_ bv62 6) ?x10013)))
 (let ((?x4109 (stack_t x_0 x_1 x_2 w_1 3 ?x1211)))
 (let (($x9930 (= (stack_t x_0 x_1 x_2 w_1 4 (bvadd (_ bv62 6) ?x7495)) ?x4109)))
 (let ((?x142 (bvadd (_ bv61 6) ?x10013)))
 (let ((?x3668 (stack_t x_0 x_1 x_2 w_1 3 ?x142)))
 (let (($x8767 (= (stack_t x_0 x_1 x_2 w_1 4 (bvadd (_ bv61 6) ?x7495)) ?x3668)))
 (let ((?x6860 (bvadd (_ bv63 6) ?x10013)))
 (let ((?x3252 (stack_t x_0 x_1 x_2 w_1 3 ?x6860)))
 (let (($x1687 (= (stack_t x_0 x_1 x_2 w_1 4 (bvadd (_ bv60 6) ?x7495)) ?x3252)))
 (let (($x6913 (= (stack_t x_0 x_1 x_2 w_1 4 (bvadd (_ bv63 6) ?x7495)) (stack_t x_0 x_1 x_2 w_1 3 (bvadd (_ bv60 6) ?x10013)))))
 (let (($x11811 (not (= ((_ extract 6 6) (bvadd (_ bv1 7) (concat (_ bv0 1) (sc_t 2)))) (_ bv0 1)))))
 (let (($x10349 (exc_halt_t 2)))
 (let (($x9131 (exc_halt_t 3)))
 (let (($x7616 (forall ((w (_ BitVec 256)) )(let ((?x4986 (storage_t x_0 x_1 x_2 w_1 2 w)))
 (let ((?x582 (storage_t x_0 x_1 x_2 w_1 3 w)))
 (= ?x582 ?x4986))))
 ))
 (let (($x3174 (forall ((n (_ BitVec 6)) )(let ((?x6198 (sc_t 2)))
 (let (($x9180 (bvsle ?x6198 n)))
 (let ((?x7008 (stack_t x_0 x_1 x_2 w_1 2 n)))
 (let ((?x2080 (stack_t x_0 x_1 x_2 w_1 3 n)))
 (let (($x8075 (= ?x2080 ?x7008)))
 (or $x8075 $x9180)))))))
 ))
 (let (($x2834 (= ?x10013 (bvadd (_ bv1 6) (sc_t 2)))))
 (let ((?x1089 (used_gas_t x_0 x_1 x_2 w_1 3)))
 (let (($x7930 (= ?x1089 (+ 3 (used_gas_t x_0 x_1 x_2 w_1 2)))))
 (let (($x5453 (not (bvsle (_ bv0 6) (bvadd (_ bv61 6) (sc_t 1))))))
 (let (($x3448 (not (= ((_ extract 6 6) (bvadd (_ bv1 7) (concat (_ bv0 1) (sc_t 1)))) (_ bv0 1)))))
 (let (($x3194 (exc_halt_t 1)))
 (let (($x3944 (forall ((w (_ BitVec 256)) )(let ((?x579 (storage_t x_0 x_1 x_2 w_1 1 w)))
 (let ((?x4986 (storage_t x_0 x_1 x_2 w_1 2 w)))
 (= ?x4986 ?x579))))
 ))
 (let (($x4874 (forall ((n (_ BitVec 6)) )(let ((?x4154 (stack_t x_0 x_1 x_2 w_1 1 n)))
 (let ((?x7008 (stack_t x_0 x_1 x_2 w_1 2 n)))
 (let (($x8394 (= ?x7008 ?x4154)))
 (let ((?x6855 (sc_t 1)))
 (let ((?x3223 (bvadd (_ bv61 6) ?x6855)))
 (let (($x855 (bvsle ?x3223 n)))
 (or $x855 $x8394))))))))
 ))
 (let ((?x6198 (sc_t 2)))
 (let (($x10355 (= ?x6198 (bvadd (_ bv1 6) (sc_t 1)))))
 (let ((?x6535 (used_gas_t x_0 x_1 x_2 w_1 2)))
 (let (($x1572 (= ?x6535 (+ 3 (used_gas_t x_0 x_1 x_2 w_1 1)))))
 (let ((?x6855 (sc_t 1)))
 (let ((?x7770 (bvadd (_ bv63 6) ?x6855)))
 (let ((?x11517 (stack_t x_0 x_1 x_2 w_1 1 ?x7770)))
 (let (($x4249 (= (stack_t x_0 x_1 x_2 w_1 2 (bvadd (_ bv62 6) ?x6855)) (stack_t x_0 x_1 x_2 w_1 1 (bvadd (_ bv62 6) ?x6855)))))
 (let ((?x3223 (bvadd (_ bv61 6) ?x6855)))
 (let ((?x3139 (stack_t x_0 x_1 x_2 w_1 1 ?x3223)))
 (let (($x5071 (not (= ((_ extract 6 6) (bvadd (_ bv1 7) (concat (_ bv0 1) ?x63))) (_ bv0 1)))))
 (let (($x1713 (not (bvsle (_ bv0 6) (bvadd (_ bv61 6) ?x63)))))
 (let (($x10047 (= $x3194 (or $x56 $x1713 $x5071))))
 (let (($x5931 (forall ((w (_ BitVec 256)) )(let ((?x685 (storage_t x_0 x_1 x_2 w_1 0 w)))
 (let ((?x579 (storage_t x_0 x_1 x_2 w_1 1 w)))
 (= ?x579 ?x685))))
 ))
 (let (($x3038 (forall ((n (_ BitVec 6)) )(let ((?x63 (sc_t 0)))
 (let ((?x5422 (bvadd (_ bv61 6) ?x63)))
 (let (($x6773 (bvsle ?x5422 n)))
 (let ((?x3687 (stack_t x_0 x_1 x_2 w_1 0 n)))
 (let ((?x4154 (stack_t x_0 x_1 x_2 w_1 1 n)))
 (or (= ?x4154 ?x3687) $x6773)))))))
 ))
 (let (($x3505 (= ?x6855 (bvadd (_ bv1 6) ?x63))))
 (let ((?x8194 (used_gas_t x_0 x_1 x_2 w_1 1)))
 (let (($x1382 (= ?x8194 (+ 3 ?x1974))))
 (let (($x403 (= (stack_t x_0 x_1 x_2 w_1 1 (bvadd (_ bv63 6) ?x63)) (stack_t x_0 x_1 x_2 w_1 0 (bvadd (_ bv63 6) ?x63)))))
 (let (($x2478 (= (stack_t x_0 x_1 x_2 w_1 1 (bvadd (_ bv62 6) ?x63)) (stack_t x_0 x_1 x_2 w_1 0 (bvadd (_ bv62 6) ?x63)))))
 (let ((?x5422 (bvadd (_ bv61 6) ?x63)))
 (let ((?x1797 (stack_t x_0 x_1 x_2 w_1 0 ?x5422)))
 (let (($x11830 (= (stack_t x_0 x_1 x_2 w_1 1 ?x5422) ?x1797)))
 (let (($x7396 (= ?x11517 ?x1797)))
 (let (($x6401 (= $x7121 (or (exc_halt_s 5) (not (bvsle (_ bv0 6) (bvadd (_ bv62 6) (sc_s 5))))))))
 (let (($x8879 (forall ((w (_ BitVec 256)) )(let ((?x10724 (storage_s x_0 x_1 x_2 w_1 5 w)))
 (let ((?x5458 (storage_s x_0 x_1 x_2 w_1 6 w)))
 (= ?x5458 ?x10724))))
 ))
 (let (($x6658 (forall ((n (_ BitVec 6)) )(let ((?x7352 (stack_s x_0 x_1 x_2 w_1 5 n)))
 (let ((?x3053 (stack_s x_0 x_1 x_2 w_1 6 n)))
 (let ((?x4319 (sc_s 5)))
 (let ((?x9678 (bvadd (_ bv62 6) ?x4319)))
 (let (($x2559 (bvsle ?x9678 n)))
 (or $x2559 (= ?x3053 ?x7352))))))))
 ))
 (let ((?x4319 (sc_s 5)))
 (let (($x9872 (= ?x9114 ?x4319)))
 (let (($x11040 (= (used_gas_s x_0 x_1 x_2 w_1 6) (+ 3 (used_gas_s x_0 x_1 x_2 w_1 5)))))
 (let ((?x8095 (bvadd (_ bv63 6) ?x4319)))
 (let ((?x10727 (stack_s x_0 x_1 x_2 w_1 5 ?x8095)))
 (let ((?x9678 (bvadd (_ bv62 6) ?x4319)))
 (let ((?x7239 (stack_s x_0 x_1 x_2 w_1 5 ?x9678)))
 (let (($x9175 (exc_halt_s 4)))
 (let (($x1516 (or (not (= ((_ extract 6 6) (bvadd (_ bv1 7) (concat (_ bv0 1) (sc_s 4)))) (_ bv0 1))) (not (bvsle (_ bv0 6) (bvadd (_ bv60 6) (sc_s 4)))) $x9175)))
 (let (($x1862 (exc_halt_s 5)))
 (let (($x6920 (forall ((w (_ BitVec 256)) )(let ((?x11439 (storage_s x_0 x_1 x_2 w_1 4 w)))
 (let ((?x10724 (storage_s x_0 x_1 x_2 w_1 5 w)))
 (= ?x10724 ?x11439))))
 ))
 (let (($x6422 (forall ((n (_ BitVec 6)) )(let ((?x373 (stack_s x_0 x_1 x_2 w_1 4 n)))
 (let ((?x7352 (stack_s x_0 x_1 x_2 w_1 5 n)))
 (let (($x10591 (= ?x7352 ?x373)))
 (or $x10591 (bvsle (bvadd (_ bv60 6) (sc_s 4)) n))))))
 ))
 (let ((?x2767 (used_gas_s x_0 x_1 x_2 w_1 5)))
 (let (($x11018 (= ?x2767 (+ 3 (used_gas_s x_0 x_1 x_2 w_1 4)))))
 (let ((?x9433 (sc_s 4)))
 (let ((?x11350 (bvadd (_ bv63 6) ?x9433)))
 (let ((?x6153 (stack_s x_0 x_1 x_2 w_1 4 ?x11350)))
 (let ((?x3745 (bvadd (_ bv62 6) ?x9433)))
 (let ((?x11041 (stack_s x_0 x_1 x_2 w_1 4 ?x3745)))
 (let (($x442 (= (stack_s x_0 x_1 x_2 w_1 5 (bvadd (_ bv61 6) ?x9433)) (stack_s x_0 x_1 x_2 w_1 4 (bvadd (_ bv61 6) ?x9433)))))
 (let ((?x7688 (bvadd (_ bv60 6) ?x9433)))
 (let ((?x10656 (stack_s x_0 x_1 x_2 w_1 4 ?x7688)))
 (let (($x7282 (= $x9175 (or (exc_halt_s 3) (not (bvsle (_ bv0 6) (bvadd (_ bv62 6) (sc_s 3))))))))
 (let (($x3951 (forall ((w (_ BitVec 256)) )(let ((?x7358 (storage_s x_0 x_1 x_2 w_1 3 w)))
 (let ((?x11439 (storage_s x_0 x_1 x_2 w_1 4 w)))
 (= ?x11439 ?x7358))))
 ))
 (let (($x4429 (forall ((n (_ BitVec 6)) )(let ((?x2197 (stack_s x_0 x_1 x_2 w_1 3 n)))
 (let ((?x373 (stack_s x_0 x_1 x_2 w_1 4 n)))
 (let (($x4815 (= ?x373 ?x2197)))
 (let ((?x3851 (sc_s 3)))
 (let ((?x7986 (bvadd (_ bv62 6) ?x3851)))
 (let (($x1115 (bvsle ?x7986 n)))
 (or $x1115 $x4815))))))))
 ))
 (let ((?x3851 (sc_s 3)))
 (let (($x10759 (= ?x9433 ?x3851)))
 (let ((?x5515 (used_gas_s x_0 x_1 x_2 w_1 4)))
 (let (($x7487 (= ?x5515 (+ 3 (used_gas_s x_0 x_1 x_2 w_1 3)))))
 (let (($x10052 (exc_halt_s 2)))
 (let (($x3934 (or (not (bvsle (_ bv0 6) (bvadd (_ bv60 6) (sc_s 2)))) $x10052 (not (= ((_ extract 6 6) (bvadd (_ bv1 7) (concat (_ bv0 1) (sc_s 2)))) (_ bv0 1))))))
 (let (($x8103 (exc_halt_s 3)))
 (let (($x1914 (forall ((w (_ BitVec 256)) )(let ((?x4896 (storage_s x_0 x_1 x_2 w_1 2 w)))
 (let ((?x7358 (storage_s x_0 x_1 x_2 w_1 3 w)))
 (= ?x7358 ?x4896))))
 ))
 (let (($x338 (forall ((n (_ BitVec 6)) )(let ((?x7980 (stack_s x_0 x_1 x_2 w_1 2 n)))
 (let ((?x2197 (stack_s x_0 x_1 x_2 w_1 3 n)))
 (let (($x6393 (= ?x2197 ?x7980)))
 (or $x6393 (bvsle (bvadd (_ bv60 6) (sc_s 2)) n))))))
 ))
 (let ((?x11918 (used_gas_s x_0 x_1 x_2 w_1 3)))
 (let (($x11347 (= ?x11918 (+ 3 (used_gas_s x_0 x_1 x_2 w_1 2)))))
 (let ((?x2272 (sc_s 2)))
 (let ((?x11939 (bvadd (_ bv63 6) ?x2272)))
 (let ((?x10172 (stack_s x_0 x_1 x_2 w_1 2 ?x11939)))
 (let ((?x10094 (bvadd (_ bv62 6) ?x2272)))
 (let ((?x3023 (stack_s x_0 x_1 x_2 w_1 2 ?x10094)))
 (let (($x4376 (= (stack_s x_0 x_1 x_2 w_1 3 (bvadd (_ bv61 6) ?x2272)) (stack_s x_0 x_1 x_2 w_1 2 (bvadd (_ bv61 6) ?x2272)))))
 (let ((?x9891 (bvadd (_ bv60 6) ?x2272)))
 (let ((?x1260 (stack_s x_0 x_1 x_2 w_1 2 ?x9891)))
 (let (($x9856 (= $x10052 (or (exc_halt_s 1) (not (bvsle (_ bv0 6) (bvadd (_ bv62 6) (sc_s 1))))))))
 (let (($x5688 (forall ((w (_ BitVec 256)) )(let ((?x1002 (storage_s x_0 x_1 x_2 w_1 1 w)))
 (let ((?x4896 (storage_s x_0 x_1 x_2 w_1 2 w)))
 (= ?x4896 ?x1002))))
 ))
 (let (($x8033 (forall ((n (_ BitVec 6)) )(let ((?x6937 (stack_s x_0 x_1 x_2 w_1 1 n)))
 (let ((?x7980 (stack_s x_0 x_1 x_2 w_1 2 n)))
 (let (($x10513 (= ?x7980 ?x6937)))
 (let ((?x154 (sc_s 1)))
 (let ((?x10814 (bvadd (_ bv62 6) ?x154)))
 (let (($x945 (bvsle ?x10814 n)))
 (or $x945 $x10513))))))))
 ))
 (let ((?x154 (sc_s 1)))
 (let (($x151 (= ?x2272 ?x154)))
 (let ((?x9360 (used_gas_s x_0 x_1 x_2 w_1 2)))
 (let (($x5977 (= ?x9360 (+ 3 (used_gas_s x_0 x_1 x_2 w_1 1)))))
 (let (($x8780 (exc_halt_s 1)))
 (let (($x3070 (= $x8780 (or $x57 (not (= ((_ extract 6 6) (bvadd (_ bv1 7) (concat (_ bv0 1) ?x72))) (_ bv0 1)))))))
 (let (($x3657 (forall ((w (_ BitVec 256)) )(let ((?x6823 (storage_s x_0 x_1 x_2 w_1 0 w)))
 (let ((?x1002 (storage_s x_0 x_1 x_2 w_1 1 w)))
 (= ?x1002 ?x6823))))
 ))
 (let (($x6345 (forall ((n (_ BitVec 6)) )(let ((?x72 (sc_s 0)))
 (let (($x11523 (bvsle ?x72 n)))
 (let ((?x11774 (stack_s x_0 x_1 x_2 w_1 0 n)))
 (let ((?x6937 (stack_s x_0 x_1 x_2 w_1 1 n)))
 (let (($x3213 (= ?x6937 ?x11774)))
 (or $x3213 $x11523)))))))
 ))
 (let (($x2608 (= ?x154 (bvadd (_ bv1 6) ?x72))))
 (let ((?x1668 (used_gas_s x_0 x_1 x_2 w_1 1)))
 (let (($x1050 (= ?x1668 (+ 3 ?x6459))))
 (let (($x6797 (forall ((w (_ BitVec 256)) )(let ((?x6823 (storage_s x_0 x_1 x_2 w_1 0 w)))
 (= ?x6823 (_ bv0 256))))
 ))
 (let (($x8927 (= ?x6459 0)))
 (let (($x3623 (not $x57)))
 (let (($x5433 (= (stack_s x_0 x_1 x_2 w_1 0 (_ bv2 6)) x_2)))
 (let (($x7395 (= (stack_s x_0 x_1 x_2 w_1 0 (_ bv1 6)) x_1)))
 (let (($x11455 (= (stack_s x_0 x_1 x_2 w_1 0 (_ bv0 6)) x_0)))
 (let (($x9108 (= ?x72 (_ bv3 6))))
 (and $x9108 $x11455 $x7395 $x5433 $x3623 $x8927 $x6797 (= (stack_s x_0 x_1 x_2 w_1 1 ?x72) w_1) $x1050 $x2608 $x6345 $x3657 $x3070 (= ?x10172 (stack_s x_0 x_1 x_2 w_1 1 (bvadd (_ bv62 6) ?x154))) (= ?x3023 (stack_s x_0 x_1 x_2 w_1 1 (bvadd (_ bv63 6) ?x154))) $x5977 $x151 $x8033 $x5688 $x9856 (= (stack_s x_0 x_1 x_2 w_1 3 (bvadd (_ bv63 6) ?x3851)) ?x1260) (= (stack_s x_0 x_1 x_2 w_1 3 ?x9891) ?x1260) $x4376 (= (stack_s x_0 x_1 x_2 w_1 3 ?x10094) ?x3023) (= (stack_s x_0 x_1 x_2 w_1 3 ?x11939) ?x10172) $x11347 (= ?x3851 (bvadd (_ bv1 6) ?x2272)) $x338 $x1914 (= $x8103 $x3934) (= ?x6153 (stack_s x_0 x_1 x_2 w_1 3 (bvadd (_ bv62 6) ?x3851))) (= ?x11041 (stack_s x_0 x_1 x_2 w_1 3 (bvadd (_ bv63 6) ?x3851))) $x7487 $x10759 $x4429 $x3951 $x7282 (= ?x10727 ?x10656) (= (stack_s x_0 x_1 x_2 w_1 5 ?x7688) ?x10656) $x442 (= (stack_s x_0 x_1 x_2 w_1 5 ?x3745) ?x11041) (= (stack_s x_0 x_1 x_2 w_1 5 ?x11350) ?x6153) $x11018 (= ?x4319 (bvadd (_ bv1 6) ?x9433)) $x6422 $x6920 (= $x1862 $x1516) (= (stack_s x_0 x_1 x_2 w_1 6 (bvadd (_ bv63 6) ?x9114)) ?x7239) (= (stack_s x_0 x_1 x_2 w_1 6 (bvadd (_ bv62 6) ?x9114)) ?x10727) $x11040 $x9872 $x6658 $x8879 $x6401 $x7396 $x11830 $x2478 $x403 $x1382 $x3505 $x3038 $x5931 $x10047 (= (stack_t x_0 x_1 x_2 w_1 2 (bvadd (_ bv63 6) ?x6198)) ?x3139) (= (stack_t x_0 x_1 x_2 w_1 2 ?x3223) ?x3139) $x4249 (= (stack_t x_0 x_1 x_2 w_1 2 ?x7770) ?x11517) $x1572 $x10355 $x4874 $x3944 (= $x10349 (or $x3194 $x3448 $x5453)) (= (stack_t x_0 x_1 x_2 w_1 3 ?x6198) w_1) $x7930 $x2834 $x3174 $x7616 (= $x9131 (or $x10349 $x11811)) $x6913 $x1687 $x8767 $x9930 $x11803 $x4539 $x8582 $x5735 $x8159 $x73 $x7871 $x58 $x5499 $x8294 (not (and $x2362 $x130 $x10095 $x10242))))))))))))))))))))))))))))))))))))))))))))))))))))))))))))))))))))))))))))))))))))))))))))))))))))))))))))))))))))))))))))))))))))))))))))))))
 )
(check-sat)
(get-proof)
